% demand
num_movements = 21;
loading_factor = [1850, 1750, 1850, 1550, 1450, 900, 950, 1350, 1650, 850, 1450, 1600, 1600, 800, 1150, 1550, 1300, 850, 1600, 1400, 1150];
pickup_time = [0, 0, 0, 0, 1, 1, 1, 3, 3, 3, 5, 5, 5, 5, 5, 6, 7, 7, 7, 7, 7];
delivery_time = [3, 1, 5, 1, 3, 3, 5, 4, 4, 5, 7, 7, 6, 6, 6, 7, 9, 9, 9, 9, 9];

% transporter definition
total_capacity = 7000;
num_decks = 3;
capacity = [3000, 1000, 3000];

% ways out of decks
num_ways_out = 1;
paths_out = array3d(decks, ways_out, decks, [
% ways out of deck d1
2, 3, 0, 

% ways out of deck d2
3, 0, 0, 

% ways out of deck d3
0, 0, 0,	

]);

